GLPSOL: GLPK LP/MIP Solver, v4.65
Parameter(s) specified in the command line:
 --model solver_drone.mod --data solver_drone_data_20.dat --output solver_drone_solution_20_9.log
 --log solver_drone_cmd_output_20_9.log --tmlim 55
Reading model section from solver_drone.mod...
41 lines were read
Reading data section from solver_drone_data_20.dat...
59 lines were read
Generating f...
Generating package_deliverd_once...
Generating package_well_delivered...
Generating time_spent_flying...
Generating autonomy_not_exceeded...
Generating check_time_max...
Model has been successfully generated
GLPK Integer Optimizer, v4.65
5176 rows, 5113 columns, 15580 non-zeros
5113 integer variables, 5103 of which are binary
Preprocessing...
72 rows, 5113 columns, 10476 non-zeros
5113 integer variables, 5103 of which are binary
Scaling...
 A: min|aij| =  1.000e+00  max|aij| =  2.856e+03  ratio =  2.856e+03
GM: min|aij| =  4.803e-01  max|aij| =  2.082e+00  ratio =  4.335e+00
EQ: min|aij| =  2.307e-01  max|aij| =  1.000e+00  ratio =  4.335e+00
2N: min|aij| =  1.250e-01  max|aij| =  1.180e+00  ratio =  9.438e+00
Constructing initial basis...
Size of triangular part is 72
Solving LP relaxation...
GLPK Simplex Optimizer, v4.65
72 rows, 5113 columns, 10476 non-zeros
      0: obj =   0.000000000e+00 inf =   1.152e+03 (1)
    100: obj =   4.096888889e+03 inf =   6.296e-14 (0)
*   127: obj =   4.096888889e+03 inf =   4.755e-14 (0)
OPTIMAL LP SOLUTION FOUND
Integer optimization begins...
Long-step dual simplex will be used
+   127: mip =     not found yet >=              -inf        (1; 0)
+   939: >>>>>   5.976000000e+03 >=   4.097000000e+03  31.4% (45; 0)
+  1828: >>>>>   5.968000000e+03 >=   4.097000000e+03  31.4% (63; 24)
+  2779: >>>>>   4.992000000e+03 >=   4.097000000e+03  17.9% (127; 26)
+  3868: >>>>>   4.632000000e+03 >=   4.097000000e+03  11.6% (150; 84)
+  4229: >>>>>   4.528000000e+03 >=   4.097000000e+03   9.5% (111; 174)
+  5839: >>>>>   4.520000000e+03 >=   4.097000000e+03   9.4% (169; 229)
+  6240: >>>>>   4.472000000e+03 >=   4.097000000e+03   8.4% (185; 252)
+  6453: >>>>>   4.424000000e+03 >=   4.097000000e+03   7.4% (203; 256)
+  6858: >>>>>   4.280000000e+03 >=   4.097000000e+03   4.3% (212; 313)
+ 12787: >>>>>   4.208000000e+03 >=   4.097000000e+03   2.6% (482; 462)
+ 31704: mip =   4.208000000e+03 >=   4.097000000e+03   2.6% (1081; 1086)
+ 48912: mip =   4.208000000e+03 >=   4.097000000e+03   2.6% (1954; 1273)
+ 69796: mip =   4.208000000e+03 >=   4.097000000e+03   2.6% (2721; 1476)
+ 89454: mip =   4.208000000e+03 >=   4.097000000e+03   2.6% (3482; 1696)
+106755: mip =   4.208000000e+03 >=   4.097000000e+03   2.6% (4295; 1854)
+123976: mip =   4.208000000e+03 >=   4.097000000e+03   2.6% (4953; 2131)
+140582: mip =   4.208000000e+03 >=   4.097000000e+03   2.6% (5725; 2343)
+156553: mip =   4.208000000e+03 >=   4.097000000e+03   2.6% (6475; 2563)
+172653: mip =   4.208000000e+03 >=   4.097000000e+03   2.6% (7289; 2765)
+189187: mip =   4.208000000e+03 >=   4.097000000e+03   2.6% (8199; 2942)
+194770: mip =   4.208000000e+03 >=   4.097000000e+03   2.6% (8518; 3009)
TIME LIMIT EXCEEDED; SEARCH TERMINATED
Time used:   55.0 secs
Memory used: 123.9 Mb (129902826 bytes)
The package 1 is delivered by the drone 2 to the house 2
The package 2 is delivered by the drone 3 to the house 2
The package 3 is delivered by the drone 4 to the house 4
The package 4 is delivered by the drone 8 to the house 4
The package 5 is delivered by the drone 1 to the house 4
The package 6 is delivered by the drone 1 to the house 5
The package 7 is delivered by the drone 3 to the house 6
The package 8 is delivered by the drone 4 to the house 6
The package 9 is delivered by the drone 6 to the house 6
The package 10 is delivered by the drone 8 to the house 8
The package 11 is delivered by the drone 4 to the house 8
The package 12 is delivered by the drone 6 to the house 8
The package 13 is delivered by the drone 2 to the house 9
The package 14 is delivered by the drone 5 to the house 9
The package 15 is delivered by the drone 7 to the house 10
The package 16 is delivered by the drone 4 to the house 10
The package 17 is delivered by the drone 7 to the house 11
The package 18 is delivered by the drone 3 to the house 12
The package 19 is delivered by the drone 4 to the house 15
The package 20 is delivered by the drone 3 to the house 16
The package 21 is delivered by the drone 9 to the house 16
The package 22 is delivered by the drone 1 to the house 18
The package 23 is delivered by the drone 7 to the house 18
The package 24 is delivered by the drone 8 to the house 20
The package 25 is delivered by the drone 5 to the house 20
The package 26 is delivered by the drone 9 to the house 21
The package 27 is delivered by the drone 6 to the house 21
Model has been successfully processed
Writing MIP solution to 'solver_drone_solution_20_9.log'...
